c ---- [ banner ] ------------------------------------------------------------
c
c Kissat SAT Solver
c 
c Copyright (c) 2021-2024 Armin Biere University of Freiburg
c Copyright (c) 2019-2021 Armin Biere Johannes Kepler University Linz
c 
c Version 4.0.1 43f02cf3e992cb44653b35e5cb26f93281552ae0
c gcc (Ubuntu 13.2.0-23ubuntu4) 13.2.0 -W -Wall -O3 -DNDEBUG
c Thu Sep 12 12:27:46 CEST 2024 Linux abryzen9 6.8.0-41-generic x86_64
c
c ---- [ parsing ] -----------------------------------------------------------
c
c opened and reading DIMACS file:
c
c   /data/artifact/AMulet2.0_artifact/exp4/cnf_dc2_64/64_64_U1_WT_KS_Multgen_dc2.cnf
c
c parsed 'p cnf 31175 135342' header
c closing input after reading 2703418 bytes (3 MB)
c finished parsing after 0.02 seconds
c
c ---- [ options ] -----------------------------------------------------------
c
c --stable=0                       (different from default '1')
c
c ---- [ solving ] -----------------------------------------------------------
c
c  seconds switched rate     size/glue tier1  binary           remaining
c         MB reductions conflicts size  tier2     irredundant
c          level restarts redundant glue  trail           variables
c
c *  0.02 10 0 0 0  0 0   0   0 0.0 0 0 0 0 0% 13625 121715 31172 100%
c (  0.04 13 0 0 0  0 0   0   0 0.0 0 0 0 0 0% 13625 121715 31172 100%
c .  0.04 13 0 0 0  0 0   0   0 0.0 0 0 0 0 0% 13621 121715 31172 100%
c c  0.10 18 0 0 0  0 0   0   0 0.0 0 0 0 0 0% 20558 108048 27704 89%
c d  0.11 18 0 0 0  0 0   0   0 0.0 0 0 0 0 0% 13622 108048 27704 89%
c =  0.15 18 0 0 0  0 0   0   0 0.0 0 0 0 0 0% 13878 108048 27509 88%
c d  0.15 18 0 0 0  0 0   0   0 0.0 0 0 0 0 0% 13488 108048 27509 88%
c f  0.22 19 0 0 0  0 0   0   0 0.0 0 0 0 0 0% 18464 100223 30298 97%
c e  0.34 29 0 0 0  0 0   0   0 0.0 0 0 0 0 0% 11869 108541 21023 67%
c )  0.34 29 0 0 0  0 0   0   0 0.0 0 0 0 0 0% 11869 108541 21023 67%
c {  0.36 29 0 0 0  0 0   0   0 0.0 0 0 2 6 0% 11869 108541 21023 67%
c -  0.50 29 135 0 1 302 30 1000 697 2.2 11 5 2 8 19% 11983 108536 21023 67%
c -  0.64 29 183 0 2 451 33 2000 1417 3.3 17 5 2 9 22% 12021 108536 21023 67%
c c  0.73 26 217 0 2 521 33 2503 1835 3.2 17 5 3 9 20% 12231 108151 20972 67%
c d  0.73 26 217 0 2 521 33 2503 1833 3.2 17 5 3 9 20% 12129 108151 20972 67%
c u  0.74 26 217 0 2 521 33 2503 1466 3.2 17 5 3 9 20% 12138 108151 20972 67%
c v  0.75 26 217 0 2 521 33 2503 1310 3.2 17 5 3 9 20% 12138 108151 20972 67%
c w  0.77 26 217 0 2 521 33 2503 1309 3.2 17 5 3 9 20% 12138 108151 20972 67%
c x  0.78 26 217 0 2 521 33 2503 1307 3.2 17 5 3 9 20% 12228 107894 20972 67%
c =  0.83 26 217 0 2 521 33 2503 1307 3.2 17 5 3 9 20% 12684 107894 20744 67%
c
c  seconds   switched   rate       size/glue tier1    binary           remaining
c         MB  reductions conflicts       size  tier2      irredundant
c           level restarts    redundant    glue   trail           variables
c
c d  0.83 26 217 0 2 521 33 2503 1305 3.2 17 5 3 9 20% 12228 107894 20744 67%
c t  0.84 26 217 0 2 521 33 2503 1305 3.2 17 5 3 9 20% 12207 107894 20744 67%
c f  0.86 26 217 0 2 521 33 2503 1305 3.2 17 5 3 9 20% 12789 106718 21332 68%
c u  0.91 26 217 0 2 521 33 2503 1251 3.2 17 5 3 9 20% 12798 106718 21332 68%
c v  0.92 26 217 0 2 521 33 2503 1171 3.2 17 5 3 9 20% 12798 106718 21332 68%
c w  0.94 26 217 0 2 521 33 2503 1164 3.2 17 5 3 9 20% 12798 106718 21332 68%
c x  0.95 26 217 0 2 521 33 2503 1164 3.2 17 5 3 9 20% 12798 106268 21332 68%
c =  1.00 26 217 0 2 521 33 2503 1164 3.2 17 5 3 9 20% 13184 106268 21139 68%
c d  1.01 26 217 0 2 521 33 2503 1163 3.2 17 5 3 9 20% 12796 106268 21139 68%
c t  1.01 26 217 0 2 521 33 2503 1163 3.2 17 5 3 9 20% 12795 106268 21139 68%
c f  1.03 26 217 0 2 521 33 2503 1163 3.2 17 5 3 9 20% 12817 106235 21150 68%
c -  1.24 26 232 0 3 707 37 3415 1632 3.8 21 6 2 9 22% 12871 106235 21150 68%
c -  1.55 27 259 0 4 970 40 5149 2661 4.0 23 6 2 9 24% 12955 106229 21150 68%
c -  1.95 27 281 0 5 1223 43 7151 3709 4.4 29 7 2 9 25% 13060 106229 21150 68%
c d  2.00 27 284 0 5 1229 40 7710 4080 4.2 28 7 2 9 24% 12975 106229 21091 68%
c u  2.02 27 284 0 5 1229 40 7710 3639 4.2 28 7 2 9 24% 12997 106229 21091 68%
c v  2.05 27 284 0 5 1229 40 7710 3073 4.2 28 7 2 9 24% 12997 106229 21091 68%
c w  2.06 27 284 0 5 1229 40 7710 3061 4.2 28 7 2 9 24% 12997 106229 21091 68%
c x  2.09 27 284 0 5 1229 40 7710 3061 4.2 28 7 2 9 24% 12999 105648 21091 68%
c =  2.21 27 284 0 5 1229 40 7710 3061 4.2 28 7 2 9 24% 13695 105648 20743 67%
c
c  seconds   switched    rate       size/glue tier1    binary           remaining
c         MB  reductions  conflicts       size  tier2      irredundant
c           level  restarts    redundant    glue   trail           variables
c
c d  2.21 27 284 0 5 1229 40 7710 3052 4.2 28 7 2 9 24% 12874 105648 20737 67%
c t  2.23 27 284 0 5 1229 40 7710 3052 4.2 28 7 2 9 24% 12837 105648 20737 67%
c f  2.27 27 284 0 5 1229 40 7710 3052 4.2 28 7 2 9 24% 13879 104063 21262 68%
c u  2.33 27 284 0 5 1229 40 7710 2974 4.2 28 7 2 9 24% 13880 104063 21262 68%
c v  2.35 27 284 0 5 1229 40 7710 2856 4.2 28 7 2 9 24% 13880 104063 21262 68%
c w  2.35 27 284 0 5 1229 40 7710 2853 4.2 28 7 2 9 24% 13880 104063 21262 68%
c x  2.39 29 284 0 5 1229 40 7710 2852 4.2 28 7 2 9 24% 13968 101450 21262 68%
c =  2.49 29 284 0 5 1229 40 7710 2852 4.2 28 7 2 9 24% 14894 101450 20799 67%
c d  2.50 29 284 0 5 1229 40 7710 2832 4.2 28 7 2 9 24% 13843 101450 20799 67%
c t  2.51 29 284 0 5 1229 40 7710 2832 4.2 28 7 2 9 24% 13788 101450 20799 67%
c f  2.55 29 284 0 5 1229 40 7710 2832 4.2 28 7 2 9 24% 15684 98599 21748 70%
c -  2.78 29 298 0 6 1346 37 9387 3660 4.2 27 6 2 9 25% 15787 98591 21748 70%
c o  2.90 29 315 0 6 1408 38 10001 4200 4.3 28 6 2 9 25% 15809 98591 21748 70%
c -  3.24 29 325 0 7 1589 37 11836 5107 4.3 28 7 2 9 25% 15865 98591 21748 70%
c s  3.41 29 316 0 7 1648 37 12519 5598 4.3 29 7 2 9 26% 15925 94712 21748 70%
c e  3.49 29 316 0 7 1648 37 12519 5598 4.3 29 7 2 9 26% 14147 95950 20895 67%
c 2  3.49 29 316 0 7 1648 37 12519 5598 4.3 29 7 2 9 26% 14146 95950 20895 67%
c s  3.50 29 316 0 7 1648 37 12519 5598 4.3 29 7 2 9 26% 14156 95557 20895 67%
c e  3.51 29 316 0 7 1648 37 12519 5598 4.3 29 7 2 9 26% 14145 95566 20890 67%
c ^  3.51 29 316 0 7 1648 37 12519 5598 4.3 29 7 2 9 26% 14145 95566 20890 67%
c
c  seconds   switched    rate        size/glue tier1    binary          remaining
c         MB  reductions   conflicts       size  tier2      irredundant
c           level  restarts     redundant    glue   trail          variables
c
c -  3.73 29 290 0 8 1772 34 14481 6087 4.0 27 7 2 9 25% 14193 95562 20890 67%
c d  3.91 29 290 0 8 1849 33 15792 7194 4.0 26 7 2 9 26% 13693 95562 20570 66%
c u  3.93 29 290 0 8 1849 33 15792 6386 4.0 26 7 2 9 26% 13722 95562 20570 66%
c v  3.97 29 290 0 8 1849 33 15792 5516 4.0 26 7 2 9 26% 13725 95562 20570 66%
c w  4.01 29 290 0 8 1849 33 15792 5514 4.0 26 7 2 9 26% 13725 95562 20570 66%
c x  4.03 29 290 0 8 1849 33 15792 5514 4.0 26 7 2 9 26% 13748 94830 20570 66%
c =  4.15 29 290 0 8 1849 33 15792 5514 4.0 26 7 2 9 26% 14564 94824 20162 65%
c d  4.16 29 290 0 8 1849 33 15792 5481 4.0 26 7 2 9 26% 13553 94824 20156 65%
c t  4.17 29 290 0 8 1849 33 15792 5481 4.0 26 7 2 9 26% 13462 94824 20156 65%
c f  4.21 29 290 0 8 1849 33 15792 5481 4.0 26 7 2 9 26% 13613 94515 20234 65%
c u  4.24 29 290 0 8 1849 33 15792 5316 4.0 26 7 2 9 26% 13619 94515 20234 65%
c v  4.27 29 290 0 8 1849 33 15792 5218 4.0 26 7 2 9 26% 13619 94515 20234 65%
c w  4.32 29 290 0 8 1849 33 15792 5189 4.0 26 7 2 9 26% 13619 94515 20234 65%
c x  4.34 29 290 0 8 1849 33 15792 5189 4.0 26 7 2 9 26% 13619 94055 20234 65%
c =  4.49 29 290 0 8 1849 33 15792 5189 4.0 26 7 2 9 26% 13923 94055 20082 64%
c d  4.50 29 290 0 8 1849 33 15792 5156 4.0 26 7 2 9 26% 13501 94055 20079 64%
c t  4.51 29 290 0 8 1849 33 15792 5156 4.0 26 7 2 9 26% 13496 94055 20079 64%
c -  4.80 29 280 0 9 1983 32 17311 5695 3.9 26 7 2 9 26% 13545 94053 20079 64%
c -  5.20 29 265 0 10 2184 30 20313 7502 3.7 24 7 2 8 26% 13587 94051 20079 64%
c o  5.20 29 265 0 10 2185 30 20335 7522 3.7 24 7 2 8 26% 13587 94051 20079 64%
c
c  seconds   switched     rate        size/glue tier1    binary          remaining
c         MB   reductions   conflicts       size  tier2      irredundant
c           level   restarts     redundant    glue   trail          variables
c
c -  5.76 29 260 0 11 2505 30 23478 9042 3.7 25 7 2 8 26% 13672 94049 20079 64%
c s  5.99 29 260 0 11 2616 29 25023 10357 3.7 25 7 2 8 26% 13726 92553 20079 64%
c e  6.07 29 260 0 11 2616 29 25023 10357 3.7 25 7 2 8 26% 10967 96514 18582 60%
c s  6.07 29 260 0 11 2616 29 25023 10357 3.7 25 7 2 8 26% 11009 96173 18582 60%
c e  6.08 29 260 0 11 2616 29 25023 10357 3.7 25 7 2 8 26% 10984 96205 18571 60%
c ^  6.08 29 260 0 11 2616 29 25023 10357 3.7 25 7 2 8 26% 10984 96205 18571 60%
c -  6.40 29 252 0 12 2752 29 26795 9287 3.6 24 7 2 8 26% 11029 96205 18571 60%
c c  6.45 29 251 0 12 2758 28 26920 9398 3.6 24 7 2 8 26% 11055 96067 18548 59%
c d  6.45 29 251 0 12 2758 28 26920 9369 3.6 24 7 2 8 26% 10679 96067 18353 59%
c u  6.48 29 251 0 12 2758 28 26920 8185 3.6 24 7 2 8 26% 10700 96067 18353 59%
c v  6.52 29 251 0 12 2758 28 26920 7248 3.6 24 7 2 8 26% 10702 96067 18353 59%
c w  6.52 29 251 0 12 2758 28 26920 7246 3.6 24 7 2 8 26% 10702 96067 18353 59%
c x  6.59 29 251 0 12 2758 28 26920 7239 3.6 24 7 2 8 26% 10773 95282 18353 59%
c =  6.79 29 251 0 12 2758 28 26920 7239 3.6 24 7 2 8 26% 14275 95282 16602 53%
c d  6.80 29 251 0 12 2758 28 26920 7001 3.6 24 7 2 8 26% 10615 95282 16602 53%
c t  6.81 29 251 0 12 2758 28 26920 7001 3.6 24 7 2 8 26% 10509 95282 16602 53%
c f  6.86 29 251 0 12 2758 28 26920 7001 3.6 24 7 2 8 26% 10532 95116 16635 53%
c u  6.89 29 251 0 12 2758 28 26920 6560 3.6 24 7 2 8 26% 10538 95116 16635 53%
c v  6.92 29 251 0 12 2758 28 26920 6418 3.6 24 7 2 8 26% 10538 95116 16635 53%
c w  6.92 29 251 0 12 2758 28 26920 6416 3.6 24 7 2 8 26% 10538 95116 16635 53%
c
c  seconds   switched     rate        size/glue tier1    binary          remaining
c         MB   reductions   conflicts       size  tier2      irredundant
c           level   restarts     redundant    glue   trail          variables
c
c x  7.00 29 251 0 12 2758 28 26920 6415 3.6 24 7 2 8 26% 10547 88187 16635 53%
c =  7.20 29 251 0 12 2758 28 26920 6415 3.6 24 7 2 8 26% 14117 88179 14850 48%
c d  7.21 29 251 0 12 2758 28 26920 6338 3.6 24 7 2 8 26% 10510 88179 14850 48%
c t  7.22 29 251 0 12 2758 28 26920 6338 3.6 24 7 2 8 26% 10377 88179 14850 48%
c f  7.26 29 251 0 12 2758 28 26920 6338 3.6 24 7 2 8 26% 10387 88134 14861 48%
c -  7.62 29 235 0 13 2951 27 30260 8372 3.4 23 7 2 8 26% 10417 88131 14861 48%
c -  7.97 29 233 0 14 3192 26 33865 10353 3.3 22 7 2 8 26% 10458 88130 14861 48%
c -  8.36 29 226 0 15 3419 25 37607 12016 3.2 22 7 2 7 26% 10534 88116 14861 48%
c o  8.54 29 222 0 15 3521 24 40691 14556 3.2 21 7 2 7 25% 10601 88114 14861 48%
c c  8.69 29 223 0 15 3605 24 41247 15056 3.2 21 7 2 7 25% 10658 87898 14819 48%
c d  8.69 29 223 0 15 3605 24 41247 14911 3.2 21 7 2 7 25% 10574 87898 14819 48%
c u  8.73 29 223 0 15 3605 24 41247 12312 3.2 21 7 2 7 25% 10607 87898 14819 48%
c v  8.77 29 223 0 15 3605 24 41247 11782 3.2 21 7 2 7 25% 10608 87898 14819 48%
c w  8.79 29 223 0 15 3605 24 41247 11767 3.2 21 7 2 7 25% 10608 87898 14819 48%
c x  8.83 29 223 0 15 3605 24 41247 11767 3.2 21 7 2 7 25% 10617 81008 14819 48%
c =  8.96 29 223 0 15 3605 24 41247 11767 3.2 21 7 2 7 25% 10671 81008 14792 47%
c d  8.97 29 223 0 15 3605 24 41247 11639 3.2 21 7 2 7 25% 10587 81008 14780 47%
c t  8.98 29 223 0 15 3605 24 41247 11639 3.2 21 7 2 7 25% 10540 81008 14780 47%
c c  9.03 29 223 0 15 3605 24 41247 11639 3.2 21 7 2 7 25% 10552 80941 14772 47%
c d  9.03 29 223 0 15 3605 24 41247 11618 3.2 21 7 2 7 25% 10536 80941 14772 47%
c
c  seconds   switched     rate         size/glue tier1    binary          remaining
c         MB   reductions   conflicts        size  tier2      irredundant
c           level   restarts      redundant    glue   trail          variables
c
c u  9.06 29 223 0 15 3605 24 41247 11126 3.2 21 7 2 7 25% 10542 80941 14772 47%
c v  9.10 29 223 0 15 3605 24 41247 10323 3.2 21 7 2 7 25% 10546 80941 14772 47%
c w  9.12 29 223 0 15 3605 24 41247 10323 3.2 21 7 2 7 25% 10546 80941 14772 47%
c x  9.16 29 223 0 15 3605 24 41247 10321 3.2 21 7 2 7 25% 10557 78143 14772 47%
c d  9.30 29 223 0 15 3605 24 41247 10280 3.2 21 7 2 7 25% 10553 78143 14770 47%
c t  9.31 29 223 0 15 3605 24 41247 10280 3.2 21 7 2 7 25% 10547 78143 14770 47%
c -  9.36 29 222 0 16 3624 24 41480 9361 3.2 21 7 2 7 25% 10551 78143 14770 47%
c -  9.73 29 210 0 17 3890 23 45480 11490 3.1 20 7 2 7 24% 10604 78142 14770 47%
c - 10.04 29 215 0 18 4102 23 49603 13498 3.1 20 6 2 6 24% 10707 78139 14770 47%
c s 10.42 29 211 0 18 4418 23 52127 15718 3.1 20 7 2 6 24% 10751 71352 14770 47%
c e 10.48 29 211 0 18 4418 23 52127 15718 3.1 20 7 2 6 24% 9972 72550 14350 46%
c 2 10.48 29 211 0 18 4418 23 52127 15718 3.1 20 7 2 6 24% 9966 72550 14350 46%
c s 10.48 29 211 0 18 4418 23 52127 15718 3.1 20 7 2 6 24% 9983 72235 14350 46%
c e 10.49 29 211 0 18 4418 23 52127 15718 3.1 20 7 2 6 24% 9950 72277 14332 46%
c ^ 10.49 29 211 0 18 4418 23 52127 15718 3.1 20 7 2 6 24% 9950 72277 14332 46%
c - 10.69 29 208 0 19 4560 23 53845 14213 3.1 20 7 2 6 24% 9972 72276 14332 46%
c - 11.10 29 207 0 20 4954 23 58203 16013 3.0 20 7 2 6 24% 10047 72275 14332 46%
c d 11.18 29 205 0 20 4996 23 58881 16481 3.0 20 7 2 6 24% 9999 72275 14301 46%
c u 11.23 29 205 0 20 4996 23 58881 13770 3.0 20 7 2 6 24% 10042 72275 14301 46%
c v 11.27 29 205 0 20 4996 23 58881 12849 3.0 20 7 2 6 24% 10046 72275 14301 46%
c
c  seconds   switched     rate         size/glue tier1    binary          remaining
c         MB   reductions   conflicts        size  tier2      irredundant
c           level   restarts      redundant    glue   trail          variables
c
c w 11.29 29 205 0 20 4996 23 58881 12840 3.0 20 7 2 6 24% 10046 72275 14301 46%
c x 11.34 29 205 0 20 4996 23 58881 12825 3.0 20 7 2 6 24% 10072 71293 14301 46%
c d 11.34 29 205 0 20 4996 23 58881 12803 3.0 20 7 2 6 24% 10032 71293 14281 46%
c t 11.35 29 205 0 20 4996 23 58881 12803 3.0 20 7 2 6 24% 9990 71293 14281 46%
c f 11.37 29 205 0 20 4996 23 58881 12803 3.0 20 7 2 6 24% 10018 71175 14298 46%
c c 11.41 29 205 0 20 4996 23 58881 12744 3.0 20 7 2 6 24% 10100 70871 14254 46%
c d 11.41 29 205 0 20 4996 23 58881 12744 3.0 20 7 2 6 24% 10014 70871 14254 46%
c u 11.45 29 205 0 20 4996 23 58881 12206 3.0 20 7 2 6 24% 10020 70871 14254 46%
c v 11.48 29 205 0 20 4996 23 58881 11614 3.0 20 7 2 6 24% 10023 70871 14254 46%
c w 11.50 29 205 0 20 4996 23 58881 11594 3.0 20 7 2 6 24% 10023 70871 14254 46%
c x 11.57 29 205 0 20 4996 23 58881 11591 3.0 20 7 2 6 24% 10035 70600 14254 46%
c = 11.74 29 205 0 20 4996 23 58881 11591 3.0 20 7 2 6 24% 10063 70600 14240 46%
c d 11.75 29 205 0 20 4996 23 58881 11576 3.0 20 7 2 6 24% 10027 70600 14240 46%
c t 11.76 29 205 0 20 4996 23 58881 11576 3.0 20 7 2 6 24% 10014 70600 14240 46%
c f 11.77 29 205 0 20 4996 23 58881 11576 3.0 20 7 2 6 24% 10014 70594 14241 46%
c - 12.14 29 197 0 21 5328 22 62678 13352 2.9 19 7 2 6 23% 10070 70592 14241 46%
c - 12.61 29 195 0 22 5681 22 67260 15645 2.9 19 7 2 6 23% 10138 70592 14241 46%
c o 13.04 29 197 0 22 6024 22 70711 18645 2.9 20 7 2 6 23% 10206 70588 14241 46%
c - 13.20 29 196 0 23 6163 22 71951 17575 2.9 20 7 2 6 23% 10233 70588 14241 46%
c - 13.78 29 194 0 24 6608 22 76746 19373 3.0 20 7 2 6 23% 10310 70588 14241 46%
c
c  seconds   switched     rate         size/glue tier1    binary          remaining
c         MB   reductions   conflicts        size  tier2      irredundant
c           level   restarts      redundant    glue   trail          variables
c
c c 14.20 29 191 0 24 6920 22 79966 22145 3.0 21 7 2 6 23% 10501 69550 14024 45%
c d 14.20 29 191 0 24 6920 22 79966 21270 3.0 21 7 2 6 23% 10067 69550 14024 45%
c u 14.28 29 191 0 24 6920 22 79966 17727 3.0 21 7 2 6 23% 10111 69550 14024 45%
c v 14.35 29 191 0 24 6920 22 79966 15870 3.0 21 7 2 6 23% 10120 69550 14024 45%
c w 14.44 29 191 0 24 6920 22 79966 15868 3.0 21 7 2 6 23% 10120 69550 14024 45%
c = 14.67 29 191 0 24 6920 22 79966 15868 3.0 21 7 2 6 23% 10536 69550 13816 44%
c d 14.67 29 191 0 24 6920 22 79966 15532 3.0 21 7 2 6 23% 10031 69550 13807 44%
c t 14.68 29 191 0 24 6920 22 79966 15532 3.0 21 7 2 6 23% 9989 69550 13807 44%
c f 14.70 29 191 0 24 6920 22 79966 15532 3.0 21 7 2 6 23% 9994 69490 13816 44%
c c 14.73 29 191 0 24 6920 22 79966 15511 3.0 21 7 2 6 23% 10006 69434 13809 44%
c d 14.74 29 191 0 24 6920 22 79966 15511 3.0 21 7 2 6 23% 9992 69434 13809 44%
c u 14.79 29 191 0 24 6920 22 79966 14628 3.0 21 7 2 6 23% 9999 69434 13809 44%
c v 14.83 29 191 0 24 6920 22 79966 14287 3.0 21 7 2 6 23% 9999 69434 13809 44%
c w 14.90 29 191 0 24 6920 22 79966 14268 3.0 21 7 2 6 23% 9999 69434 13809 44%
c x 14.96 29 191 0 24 6920 22 79966 14264 3.0 21 7 2 6 23% 10006 67852 13809 44%
c = 15.25 29 191 0 24 6920 22 79966 14264 3.0 21 7 2 6 23% 10586 67768 13511 43%
c d 15.26 29 191 0 24 6920 22 79966 14179 3.0 21 7 2 6 23% 9964 67768 13510 43%
c t 15.27 29 191 0 24 6920 22 79966 14179 3.0 21 7 2 6 23% 9885 67768 13510 43%
c f 15.28 29 191 0 24 6920 22 79966 14179 3.0 21 7 2 6 23% 9895 67707 13518 43%
c - 15.49 29 189 0 25 7048 22 81644 12538 3.0 21 7 1 5 23% 9899 67707 13518 43%
c
c  seconds   switched     rate         size/glue tier1    binary         remaining
c         MB   reductions   conflicts        size  tier2     irredundant
c           level   restarts      redundant    glue   trail         variables
c
c - 16.01 29 187 0 26 7441 22 86644 14531 3.0 20 7 1 5 24% 9937 67704 13518 43%
c - 16.48 29 186 0 27 7837 21 91743 16426 3.0 20 7 1 5 23% 10004 67700 13518 43%
c s 17.11 29 185 0 27 8375 22 95835 20227 3.0 21 7 1 5 24% 10030 66583 13518 43%
c e 17.19 29 185 0 27 8375 22 95835 20227 3.0 21 7 1 5 24% 6525 74983 11802 38%
c 2 17.19 29 185 0 27 8375 22 95835 20227 3.0 21 7 1 5 24% 6516 74983 11802 38%
c s 17.20 29 185 0 27 8375 22 95835 20227 3.0 21 7 1 5 24% 6525 74463 11802 38%
c e 17.22 29 185 0 27 8375 22 95835 20227 3.0 21 7 1 5 24% 6492 74603 11762 38%
c ^ 17.22 29 185 0 27 8375 22 95835 20227 3.0 21 7 1 5 24% 6492 74603 11762 38%
c - 17.41 29 184 0 28 8549 22 96941 13305 3.0 21 7 1 5 24% 6495 74603 11762 38%
c - 18.12 29 181 0 29 9190 22 102233 15639 3.0 21 7 1 5 24% 6530 74601 11762 38%
c d 18.37 29 181 0 29 9415 22 104620 17680 3.0 21 7 1 5 24% 6511 74598 11740 38%
c u 18.41 29 181 0 29 9415 22 104620 15926 3.0 21 7 1 5 24% 6534 74598 11740 38%
c v 18.47 29 181 0 29 9415 22 104620 13648 3.0 21 7 1 5 24% 6541 74598 11740 38%
c w 18.57 29 181 0 29 9415 22 104620 13545 3.0 21 7 1 5 24% 6541 74598 11740 38%
c x 18.64 29 181 0 29 9415 22 104620 13543 3.0 21 7 1 5 24% 6565 74246 11740 38%
c = 18.84 29 181 0 29 9415 22 104620 13543 3.0 21 7 1 5 24% 7021 73640 11443 37%
c } 18.84 29 181 0 29 9415 22 104620 13543 3.0 21 7 1 5 24% 7021 73640 11664 37%
c 0 18.84 29 181 0 29 9415 22 104620 13543 3.0 21 7 1 5 24% 7021 73640 11664 37%
c
c ---- [ result ] ------------------------------------------------------------
c
s UNSATISFIABLE
c
c ---- [ profiling ] ---------------------------------------------------------
c
c          12.79   67.89 %  search
c          12.79   67.89 %  focused
c           5.69   30.22 %  simplify
c           5.44   28.87 %  probe
c           2.19   11.62 %  sweep
c           2.02   10.70 %  vivify
c           0.44    2.32 %  eliminate
c           0.40    2.15 %  factor
c           0.40    2.11 %  congruence
c           0.31    1.64 %  substitute
c           0.30    1.61 %  preprocess
c           0.12    0.63 %  reduce
c           0.12    0.62 %  fastel
c           0.09    0.45 %  transitive
c           0.08    0.43 %  subsume
c           0.04    0.19 %  backbone
c           0.03    0.16 %  lucky
c           0.02    0.12 %  parse
c =============================================
c          18.84  100.00 %  total
c
c ---- [ statistics ] --------------------------------------------------------
c
c chronological:                         4026                4 %  conflicts
c conflicts:                           104620             5552.79 per second
c congruent:                             3859               12 %  variables
c decisions:                          2247221               21.48 per conflict
c eliminated:                           13835               44 %  variables
c factored:                              5019               16 %  variables
c fast_eliminated:                       9275               67 %  eliminated
c fast_strengthened:                       26                2 %  per strengthened
c fast_subsumed:                           63                0 %  per subsumed
c propagations:                      97684840          5184699    per second
c reductions:                              29             3608    interval
c reordered:                                4            26155    interval
c restarts:                              9415               11    interval
c strengthened:                          1104                0 %  checks
c substituted:                          10607               34 %  variables
c subsumed:                             14822                1 %  checks
c switched:                                 0                0    interval
c vivified:                             61580               12 %  checks
c
c ---- [ glue usage ] --------------------------------------------------------
c
c focused glue 1 used 132931 clauses 54.85% accumulated 54.85% tier1
c focused glue 2 used  55328 clauses 22.83% accumulated 77.67%
c focused glue 3 used  15695 clauses  6.48% accumulated 84.15%
c focused glue 4 used   9554 clauses  3.94% accumulated 88.09%
c focused glue 5 used   6549 clauses  2.70% accumulated 90.79% tier2
c
c ---- [ resources ] ---------------------------------------------------------
c
c maximum-resident-set-size:         30375936 bytes         29 MB
c process-time:                            19s              18.84 seconds
c
c ---- [ shutting down ] -----------------------------------------------------
c
c exit 20
